WARNING: for repeatability, setting FPU to use double precision
============================[ Problem Statistics ]=============================
|                                                                             |
|  Number of variables:         20093                                         |
|  Number of clauses:          179481                                         |
|  Parse time:                   0.05 s                                       |
|                                                                             |
c ============================[ Search Statistics ]==============================
c | Conflicts |          ORIGINAL         |          LEARNT          | Progress |
c |           |    Vars  Clauses Literals |    Limit  Clauses Lit/Cl |          |
c ===============================================================================
c Switched to VSIDS.
c ===============================================================================
restarts                  : 440
conflicts                 : 107504         (2790 /sec)
decisions                 : 10407792       (0.00 % random) (270062 /sec)
propagations              : 54731431       (1420176 /sec)
conflict literals         : 5631105        (26.50 % deleted)

conflicts w/ DIP found    : 64903          (60.37 % of conflicts)
conflicts w/ dangerous DIP: 0              (0.00 % of conflicts)
conflicts w/ DIP-learning : 13             (0.01 % of conflicts)
decisions on ext vars     : 507            (0.00 % of decisions)
total ext vars            : 5           
tried delete ext vars     : 0           
deleted ext vars          : 0           
max ext vars              : 5           

Memory used               : 63.00 MB
CPU time                  : 38.5385 s
DIP computation time      : 0.626304 s (1.63 % of total time)
ER_sel time               : 0.121723 s
ER_add time               : 0.000121 s
ER_delC time              : 0 s
ER_delV time              : 0 s
ER_sub time               : 0.147705 s
ER_stat time              : 0 s

UNSATISFIABLE
